Minimize
  - 9 y_0 - 9 y_2 - 11 y_3 - 8 y_4 - 9 y_5 - 9 y_6 - 9 y_7 - 10 y_8 - 3 y_9
   - 7 y_10 - 4 y_11 - 5 y_12 - 2 y_13 - 5 y_14 - 8 y_15 - 9 y_16 - 3 y_17
   - 9 y_18 - 7 y_19 - 5 y_20 - 4 y_21 - 10 y_22 - 5 y_23 - 5 y_24 - 8 y_25
   - 3 y_26 - 3 y_27 - 3 y_28 - 9 y_29 - 8 y_30 - 9 y_31 - 4 y_32 - 3 y_33
   - 9 y_34 - 9 y_35 - 9 y_36 - 8 y_37 - 4 y_38 - 7 y_39 - 5 y_40 - 8 y_41
   - 7 y_42 - 7 y_43 - 8 y_44 - 5 y_45 - 10 y_46 - 8 y_47 - 4 y_48
   - 10 y_49 - 10 y_50 - 6 y_51 - 10 y_52 - 8 y_53 - 6 y_54 - 8 y_55
   - 6 y_56 - 10 y_57 - 8 y_58 - 10 y_59 - 9 y_60 - 9 y_61 - 8 y_62
   - 3 y_63 - 5 y_64 - 10 y_65 - 9 y_66 - 8 y_67 - 11 y_68 - 7 y_69
   - 10 y_70 - 10 y_71 - 10 y_72 - 4 y_73 - 4 y_74 - 6 y_75 - 4 y_76
   - 6 y_77 - 10 y_78 - 3 y_79 - 11 y_80 - 8 y_81 - 5 y_82 - 8 y_83
   - 11 y_84 - 6 y_85 - 3 y_86 - 6 y_87 - 6 y_88 - 2 y_89 - 6 y_90
   - 10 y_91 - 5 y_92 - 5 y_93 - 6 y_94 - 10 y_95 - 9 y_96 - 9 y_97
   - 5 y_98 - 6 y_99 + 698 Constant
Subject To
 c_0: y_62 = 1
 c_1_0: y_0 + y_35 + y_67 >= 1
 c_1_1: y_1 >= 1
 c_1_2: y_2 + y_36 + y_50 >= 1
 c_1_3: y_3 >= 1
 c_1_4: y_4 + y_39 + y_67 >= 1
 c_1_5: y_5 + y_25 + y_47 + y_58 >= 1
 c_1_6: y_6 + y_16 + y_18 + y_49 + y_62 + y_97 >= 1
 c_1_7: y_7 + y_30 + y_55 >= 1
 c_1_8: y_8 + y_46 + y_50 + y_65 >= 1
 c_1_9: y_9 + y_63 >= 1
 c_1_10: y_10 + y_77 >= 1
 c_1_11: y_11 + y_14 + y_21 >= 1
 c_1_12: y_12 + y_64 + y_88 + y_94 >= 1
 c_1_13: y_13 + y_89 >= 1
 c_1_14: y_11 + y_14 + y_40 + y_75 + y_82 >= 1
 c_1_15: y_15 + y_16 + y_41 + y_53 + y_62 >= 1
 c_1_16: y_6 + y_15 + y_16 + y_22 + y_53 + y_59 + y_62 + y_70 >= 1
 c_1_17: y_17 + y_38 + y_63 + y_79 + y_86 >= 1
 c_1_18: y_6 + y_18 + y_49 + y_96 + y_97 >= 1
 c_1_19: y_19 >= 1
 c_1_20: y_20 + y_40 + y_75 + y_87 + y_92 >= 1
 c_1_21: y_11 + y_21 + y_26 + y_27 + y_28 + y_33 >= 1
 c_1_22: y_16 + y_22 + y_49 + y_59 + y_70 + y_84 + y_95 >= 1
 c_1_23: y_23 + y_48 + y_92 >= 1
 c_1_24: y_24 + y_45 + y_51 + y_64 >= 1
 c_1_25: y_5 + y_25 + y_47 + y_81 >= 1
 c_1_26: y_21 + y_26 + y_27 + y_28 + y_33 + y_89 >= 1
 c_1_27: y_21 + y_26 + y_27 + y_28 + y_33 + y_89 >= 1
 c_1_28: y_21 + y_26 + y_27 + y_28 + y_33 + y_89 >= 1
 c_1_29: y_29 + y_61 + y_66 >= 1
 c_1_30: y_7 + y_30 + y_55 + y_81 >= 1
 c_1_31: y_31 + y_35 >= 1
 c_1_32: y_32 + y_38 + y_74 + y_76 + y_98 >= 1
 c_1_33: y_21 + y_26 + y_27 + y_28 + y_33 + y_89 >= 1
 c_1_34: y_34 + y_78 + y_96 >= 1
 c_1_35: y_0 + y_31 + y_35 >= 1
 c_1_36: y_2 + y_36 + y_37 + y_44 >= 1
 c_1_37: y_36 + y_37 + y_44 >= 1
 c_1_38: y_17 + y_32 + y_38 + y_45 + y_76 >= 1
 c_1_39: y_4 + y_39 + y_85 + y_90 >= 1
 c_1_40: y_14 + y_20 + y_40 + y_75 + y_82 + y_87 + y_90 >= 1
 c_1_41: y_15 + y_41 + y_53 >= 1
 c_1_42: y_42 + y_51 + y_88 + y_99 >= 1
 c_1_43: y_43 + y_58 + y_99 >= 1
 c_1_44: y_36 + y_37 + y_44 >= 1
 c_1_45: y_24 + y_38 + y_45 >= 1
 c_1_46: y_8 + y_46 + y_72 >= 1
 c_1_47: y_5 + y_25 + y_47 + y_81 >= 1
 c_1_48: y_23 + y_48 + y_92 >= 1
 c_1_49: y_6 + y_18 + y_22 + y_49 + y_59 + y_97 >= 1
 c_1_50: y_2 + y_8 + y_50 + y_65 + y_91 >= 1
 c_1_51: y_24 + y_42 + y_51 + y_88 + y_94 + y_99 >= 1
 c_1_52: y_52 + y_68 >= 1
 c_1_53: y_15 + y_16 + y_41 + y_53 + y_62 >= 1
 c_1_54: y_54 >= 1
 c_1_55: y_7 + y_30 + y_55 + y_81 >= 1
 c_1_56: y_56 + y_69 + y_75 + y_87 >= 1
 c_1_57: y_57 >= 1
 c_1_58: y_5 + y_43 + y_58 + y_96 >= 1
 c_1_59: y_16 + y_22 + y_49 + y_59 + y_70 + y_95 >= 1
 c_1_60: y_60 + y_71 >= 1
 c_1_61: y_29 + y_61 + y_66 >= 1
 c_1_62: y_6 + y_15 + y_16 + y_53 + y_62 >= 1
 c_1_63: y_9 + y_17 + y_63 + y_79 + y_86 >= 1
 c_1_64: y_12 + y_24 + y_64 + y_73 + y_94 >= 1
 c_1_65: y_8 + y_50 + y_65 + y_91 >= 1
 c_1_66: y_29 + y_61 + y_66 >= 1
 c_1_67: y_0 + y_4 + y_67 + y_83 >= 1
 c_1_68: y_52 + y_68 >= 1
 c_1_69: y_56 + y_69 >= 1
 c_1_70: y_16 + y_22 + y_59 + y_70 + y_84 + y_95 >= 1
 c_1_71: y_60 + y_71 + y_91 >= 1
 c_1_72: y_46 + y_72 >= 1
 c_1_73: y_64 + y_73 >= 1
 c_1_74: y_32 + y_74 + y_76 + y_98 >= 1
 c_1_75: y_14 + y_20 + y_40 + y_56 + y_75 + y_82 + y_87 + y_90 >= 1
 c_1_76: y_32 + y_38 + y_74 + y_76 + y_98 >= 1
 c_1_77: y_10 + y_77 >= 1
 c_1_78: y_34 + y_78 >= 1
 c_1_79: y_17 + y_63 + y_79 + y_86 >= 1
 c_1_80: y_80 >= 1
 c_1_81: y_25 + y_30 + y_47 + y_55 + y_81 >= 1
 c_1_82: y_14 + y_40 + y_75 + y_82 + y_85 + y_90 >= 1
 c_1_83: y_67 + y_83 >= 1
 c_1_84: y_22 + y_70 + y_84 + y_95 >= 1
 c_1_85: y_39 + y_82 + y_85 + y_90 >= 1
 c_1_86: y_17 + y_63 + y_79 + y_86 >= 1
 c_1_87: y_20 + y_40 + y_56 + y_75 + y_87 >= 1
 c_1_88: y_12 + y_42 + y_51 + y_88 + y_94 + y_99 >= 1
 c_1_89: y_13 + y_26 + y_27 + y_28 + y_33 + y_89 >= 1
 c_1_90: y_39 + y_40 + y_75 + y_82 + y_85 + y_90 >= 1
 c_1_91: y_50 + y_65 + y_71 + y_91 >= 1
 c_1_92: y_20 + y_23 + y_48 + y_92 >= 1
 c_1_93: y_93 >= 1
 c_1_94: y_12 + y_51 + y_64 + y_88 + y_94 + y_99 >= 1
 c_1_95: y_22 + y_59 + y_70 + y_84 + y_95 >= 1
 c_1_96: y_18 + y_34 + y_58 + y_96 >= 1
 c_1_97: y_6 + y_18 + y_49 + y_97 >= 1
 c_1_98: y_32 + y_74 + y_76 + y_98 >= 1
 c_1_99: y_42 + y_43 + y_51 + y_88 + y_94 + y_99 >= 1
Bounds
 Constant = 1
Binaries
 y_0 y_1 y_2 y_3 y_4 y_5 y_6 y_7 y_8 y_9 y_10 y_11 y_12 y_13 y_14 y_15 y_16
 y_17 y_18 y_19 y_20 y_21 y_22 y_23 y_24 y_25 y_26 y_27 y_28 y_29 y_30 y_31
 y_32 y_33 y_34 y_35 y_36 y_37 y_38 y_39 y_40 y_41 y_42 y_43 y_44 y_45 y_46
 y_47 y_48 y_49 y_50 y_51 y_52 y_53 y_54 y_55 y_56 y_57 y_58 y_59 y_60 y_61
 y_62 y_63 y_64 y_65 y_66 y_67 y_68 y_69 y_70 y_71 y_72 y_73 y_74 y_75 y_76
 y_77 y_78 y_79 y_80 y_81 y_82 y_83 y_84 y_85 y_86 y_87 y_88 y_89 y_90 y_91
 y_92 y_93 y_94 y_95 y_96 y_97 y_98 y_99
End
